c nIsolatedPIs 0
c maxPI 32
p cnf 336 913
c gate 33 6 22 0
6 -33 0
22 -33 0
-6 -22 33 0
c gate 34 -6 22 0
-6 -34 0
22 -34 0
6 -22 34 0
c gate 35 6 -22 0
6 -35 0
-22 -35 0
-6 22 35 0
c gate 36 -34 -35 0
-34 -36 0
-35 -36 0
34 35 36 0
c gate 37 5 21 0
5 -37 0
21 -37 0
-5 -21 37 0
c gate 38 -5 21 0
-5 -38 0
21 -38 0
5 -21 38 0
c gate 39 5 -21 0
5 -39 0
-21 -39 0
-5 21 39 0
c gate 40 -38 -39 0
-38 -40 0
-39 -40 0
38 39 40 0
c gate 41 -4 -20 0
-4 -41 0
-20 -41 0
4 20 41 0
c gate 42 4 20 0
4 -42 0
20 -42 0
-4 -20 42 0
c gate 43 -41 -42 0
-41 -43 0
-42 -43 0
41 42 43 0
c gate 44 3 19 0
3 -44 0
19 -44 0
-3 -19 44 0
c gate 45 -3 19 0
-3 -45 0
19 -45 0
3 -19 45 0
c gate 46 3 -19 0
3 -46 0
-19 -46 0
-3 19 46 0
c gate 47 -45 -46 0
-45 -47 0
-46 -47 0
45 46 47 0
c gate 48 -2 18 0
-2 -48 0
18 -48 0
2 -18 48 0
c gate 49 2 -18 0
2 -49 0
-18 -49 0
-2 18 49 0
c gate 50 -48 -49 0
-48 -50 0
-49 -50 0
48 49 50 0
c gate 51 1 17 0
1 -51 0
17 -51 0
-1 -17 51 0
c gate 52 -50 51 0
-50 -52 0
51 -52 0
50 -51 52 0
c gate 53 2 18 0
2 -53 0
18 -53 0
-2 -18 53 0
c gate 54 -52 -53 0
-52 -54 0
-53 -54 0
52 53 54 0
c gate 55 -47 -54 0
-47 -55 0
-54 -55 0
47 54 55 0
c gate 56 -44 -55 0
-44 -56 0
-55 -56 0
44 55 56 0
c gate 57 43 56 0
43 -57 0
56 -57 0
-43 -56 57 0
c gate 58 -41 -57 0
-41 -58 0
-57 -58 0
41 57 58 0
c gate 59 -40 58 0
-40 -59 0
58 -59 0
40 -58 59 0
c gate 60 -37 -59 0
-37 -60 0
-59 -60 0
37 59 60 0
c gate 61 -36 -60 0
-36 -61 0
-60 -61 0
36 60 61 0
c gate 62 -33 -61 0
-33 -62 0
-61 -62 0
33 61 62 0
c gate 63 7 23 0
7 -63 0
23 -63 0
-7 -23 63 0
c gate 64 -7 -23 0
-7 -64 0
-23 -64 0
7 23 64 0
c gate 65 -63 -64 0
-63 -65 0
-64 -65 0
63 64 65 0
c gate 66 -62 65 0
-62 -66 0
65 -66 0
62 -65 66 0
c gate 67 62 -65 0
62 -67 0
-65 -67 0
-62 65 67 0
c gate 68 -66 -67 0
-66 -68 0
-67 -68 0
66 67 68 0
c gate 69 18 -54 0
18 -69 0
-54 -69 0
-18 54 69 0
c gate 70 -44 -69 0
-44 -70 0
-69 -70 0
44 69 70 0
c gate 71 43 -70 0
43 -71 0
-70 -71 0
-43 70 71 0
c gate 72 -42 -71 0
-42 -72 0
-71 -72 0
42 71 72 0
c gate 73 -37 72 0
-37 -73 0
72 -73 0
37 -72 73 0
c gate 74 -36 -73 0
-36 -74 0
-73 -74 0
36 73 74 0
c gate 75 -33 -74 0
-33 -75 0
-74 -75 0
33 74 75 0
c gate 76 65 -75 0
65 -76 0
-75 -76 0
-65 75 76 0
c gate 77 -65 75 0
-65 -77 0
75 -77 0
65 -75 77 0
c gate 78 -76 -77 0
-76 -78 0
-77 -78 0
76 77 78 0
c gate 79 -68 78 0
-68 -79 0
78 -79 0
68 -78 79 0
c gate 80 68 -78 0
68 -80 0
-78 -80 0
-68 78 80 0
c gate 81 -79 -80 0
-79 -81 0
-80 -81 0
79 80 81 0
c gate 82 8 -24 0
8 -82 0
-24 -82 0
-8 24 82 0
c gate 83 -8 24 0
-8 -83 0
24 -83 0
8 -24 83 0
c gate 84 -82 -83 0
-82 -84 0
-83 -84 0
82 83 84 0
c gate 85 65 -84 0
65 -85 0
-84 -85 0
-65 84 85 0
c gate 86 -81 85 0
-81 -86 0
85 -86 0
81 -85 86 0
c gate 87 11 27 0
11 -87 0
27 -87 0
-11 -27 87 0
c gate 88 9 25 0
9 -88 0
25 -88 0
-9 -25 88 0
c gate 89 10 26 0
10 -89 0
26 -89 0
-10 -26 89 0
c gate 90 -88 -89 0
-88 -90 0
-89 -90 0
88 89 90 0
c gate 91 -9 -25 0
-9 -91 0
-25 -91 0
9 25 91 0
c gate 92 -8 -24 0
-8 -92 0
-24 -92 0
8 24 92 0
c gate 93 -91 -92 0
-91 -93 0
-92 -93 0
91 92 93 0
c gate 94 8 24 0
8 -94 0
24 -94 0
-8 -24 94 0
c gate 95 -62 -64 0
-62 -95 0
-64 -95 0
62 64 95 0
c gate 96 -63 -95 0
-63 -96 0
-95 -96 0
63 95 96 0
c gate 97 -94 96 0
-94 -97 0
96 -97 0
94 -96 97 0
c gate 98 93 -97 0
93 -98 0
-97 -98 0
-93 97 98 0
c gate 99 90 -98 0
90 -99 0
-98 -99 0
-90 98 99 0
c gate 100 -11 -27 0
-11 -100 0
-27 -100 0
11 27 100 0
c gate 101 -10 -26 0
-10 -101 0
-26 -101 0
10 26 101 0
c gate 102 -100 -101 0
-100 -102 0
-101 -102 0
100 101 102 0
c gate 103 -99 102 0
-99 -103 0
102 -103 0
99 -102 103 0
c gate 104 -87 -103 0
-87 -104 0
-103 -104 0
87 103 104 0
c gate 105 12 -28 0
12 -105 0
-28 -105 0
-12 28 105 0
c gate 106 -12 28 0
-12 -106 0
28 -106 0
12 -28 106 0
c gate 107 -105 -106 0
-105 -107 0
-106 -107 0
105 106 107 0
c gate 108 104 -107 0
104 -108 0
-107 -108 0
-104 107 108 0
c gate 109 -104 107 0
-104 -109 0
107 -109 0
104 -107 109 0
c gate 110 -108 -109 0
-108 -110 0
-109 -110 0
108 109 110 0
c gate 111 -64 -75 0
-64 -111 0
-75 -111 0
64 75 111 0
c gate 112 -63 -111 0
-63 -112 0
-111 -112 0
63 111 112 0
c gate 113 -94 112 0
-94 -113 0
112 -113 0
94 -112 113 0
c gate 114 93 -113 0
93 -114 0
-113 -114 0
-93 113 114 0
c gate 115 90 -114 0
90 -115 0
-114 -115 0
-90 114 115 0
c gate 116 11 -27 0
11 -116 0
-27 -116 0
-11 27 116 0
c gate 117 -11 27 0
-11 -117 0
27 -117 0
11 -27 117 0
c gate 118 -116 -117 0
-116 -118 0
-117 -118 0
116 117 118 0
c gate 119 -101 -118 0
-101 -119 0
-118 -119 0
101 118 119 0
c gate 120 -115 119 0
-115 -120 0
119 -120 0
115 -119 120 0
c gate 121 -87 -120 0
-87 -121 0
-120 -121 0
87 120 121 0
c gate 122 107 -121 0
107 -122 0
-121 -122 0
-107 121 122 0
c gate 123 -107 121 0
-107 -123 0
121 -123 0
107 -121 123 0
c gate 124 -122 -123 0
-122 -124 0
-123 -124 0
122 123 124 0
c gate 125 -110 124 0
-110 -125 0
124 -125 0
110 -124 125 0
c gate 126 110 -124 0
110 -126 0
-124 -126 0
-110 124 126 0
c gate 127 -84 96 0
-84 -127 0
96 -127 0
84 -96 127 0
c gate 128 -86 -127 0
-86 -128 0
-127 -128 0
86 127 128 0
c gate 129 10 -26 0
10 -129 0
-26 -129 0
-10 26 129 0
c gate 130 -10 26 0
-10 -130 0
26 -130 0
10 -26 130 0
c gate 131 -129 -130 0
-129 -131 0
-130 -131 0
129 130 131 0
c gate 132 9 -25 0
9 -132 0
-25 -132 0
-9 25 132 0
c gate 133 -9 25 0
-9 -133 0
25 -133 0
9 -25 133 0
c gate 134 -132 -133 0
-132 -134 0
-133 -134 0
132 133 134 0
c gate 135 -118 -134 0
-118 -135 0
-134 -135 0
118 134 135 0
c gate 136 -131 135 0
-131 -136 0
135 -136 0
131 -135 136 0
c gate 137 -95 -136 0
-95 -137 0
-136 -137 0
95 136 137 0
c gate 138 -111 136 0
-111 -138 0
136 -138 0
111 -136 138 0
c gate 139 -137 -138 0
-137 -139 0
-138 -139 0
137 138 139 0
c gate 140 -128 139 0
-128 -140 0
139 -140 0
128 -139 140 0
c gate 141 -126 140 0
-126 -141 0
140 -141 0
126 -140 141 0
c gate 142 -125 -141 0
-125 -142 0
-141 -142 0
125 141 142 0
c gate 143 86 142 0
86 -143 0
142 -143 0
-86 -142 143 0
c gate 144 -125 -126 0
-125 -144 0
-126 -144 0
125 126 144 0
c gate 145 -107 -144 0
-107 -145 0
-144 -145 0
107 144 145 0
c gate 146 -143 -145 0
-143 -146 0
-145 -146 0
143 145 146 0
c gate 147 -16 -32 0
-16 -147 0
-32 -147 0
16 32 147 0
c gate 148 16 32 0
16 -148 0
32 -148 0
-16 -32 148 0
c gate 149 -147 -148 0
-147 -149 0
-148 -149 0
147 148 149 0
c gate 150 15 31 0
15 -150 0
31 -150 0
-15 -31 150 0
c gate 151 -15 -31 0
-15 -151 0
-31 -151 0
15 31 151 0
c gate 152 -14 -30 0
-14 -152 0
-30 -152 0
14 30 152 0
c gate 153 -151 -152 0
-151 -153 0
-152 -153 0
151 152 153 0
c gate 154 13 29 0
13 -154 0
29 -154 0
-13 -29 154 0
c gate 155 14 30 0
14 -155 0
30 -155 0
-14 -30 155 0
c gate 156 -154 -155 0
-154 -156 0
-155 -156 0
154 155 156 0
c gate 157 -13 -29 0
-13 -157 0
-29 -157 0
13 29 157 0
c gate 158 -12 -28 0
-12 -158 0
-28 -158 0
12 28 158 0
c gate 159 -157 -158 0
-157 -159 0
-158 -159 0
157 158 159 0
c gate 160 12 28 0
12 -160 0
28 -160 0
-12 -28 160 0
c gate 161 121 -160 0
121 -161 0
-160 -161 0
-121 160 161 0
c gate 162 159 -161 0
159 -162 0
-161 -162 0
-159 161 162 0
c gate 163 156 -162 0
156 -163 0
-162 -163 0
-156 162 163 0
c gate 164 153 -163 0
153 -164 0
-163 -164 0
-153 163 164 0
c gate 165 -150 -164 0
-150 -165 0
-164 -165 0
150 164 165 0
c gate 166 149 165 0
149 -166 0
165 -166 0
-149 -165 166 0
c gate 167 -149 -165 0
-149 -167 0
-165 -167 0
149 165 167 0
c gate 168 -166 -167 0
-166 -168 0
-167 -168 0
166 167 168 0
c gate 169 -108 -123 0
-108 -169 0
-123 -169 0
108 123 169 0
c gate 170 13 -29 0
13 -170 0
-29 -170 0
-13 29 170 0
c gate 171 -13 29 0
-13 -171 0
29 -171 0
13 -29 171 0
c gate 172 -170 -171 0
-170 -172 0
-171 -172 0
170 171 172 0
c gate 173 -150 -151 0
-150 -173 0
-151 -173 0
150 151 173 0
c gate 174 14 -30 0
14 -174 0
-30 -174 0
-14 30 174 0
c gate 175 -14 30 0
-14 -175 0
30 -175 0
14 -30 175 0
c gate 176 -174 -175 0
-174 -176 0
-175 -176 0
174 175 176 0
c gate 177 173 -176 0
173 -177 0
-176 -177 0
-173 176 177 0
c gate 178 -172 177 0
-172 -178 0
177 -178 0
172 -177 178 0
c gate 179 -103 -178 0
-103 -179 0
-178 -179 0
103 178 179 0
c gate 180 -120 178 0
-120 -180 0
178 -180 0
120 -178 180 0
c gate 181 -179 -180 0
-179 -181 0
-180 -181 0
179 180 181 0
c gate 182 -169 181 0
-169 -182 0
181 -182 0
169 -181 182 0
c gate 183 -168 -182 0
-168 -183 0
-182 -183 0
168 182 183 0
c gate 184 168 182 0
168 -184 0
182 -184 0
-168 -182 184 0
c gate 185 104 -160 0
104 -185 0
-160 -185 0
-104 160 185 0
c gate 186 159 -185 0
159 -186 0
-185 -186 0
-159 185 186 0
c gate 187 156 -186 0
156 -187 0
-186 -187 0
-156 186 187 0
c gate 188 153 -187 0
153 -188 0
-187 -188 0
-153 187 188 0
c gate 189 -150 -188 0
-150 -189 0
-188 -189 0
150 188 189 0
c gate 190 149 189 0
149 -190 0
189 -190 0
-149 -189 190 0
c gate 191 -149 -189 0
-149 -191 0
-189 -191 0
149 189 191 0
c gate 192 -190 -191 0
-190 -192 0
-191 -192 0
190 191 192 0
c gate 193 -184 192 0
-184 -193 0
192 -193 0
184 -192 193 0
c gate 194 -183 -193 0
-183 -194 0
-193 -194 0
183 193 194 0
c gate 195 -146 -194 0
-146 -195 0
-194 -195 0
146 194 195 0
c gate 196 84 -96 0
84 -196 0
-96 -196 0
-84 96 196 0
c gate 197 -127 -196 0
-127 -197 0
-196 -197 0
127 196 197 0
c gate 198 84 112 0
84 -198 0
112 -198 0
-84 -112 198 0
c gate 199 -84 -112 0
-84 -199 0
-112 -199 0
84 112 199 0
c gate 200 -198 -199 0
-198 -200 0
-199 -200 0
198 199 200 0
c gate 201 197 200 0
197 -201 0
200 -201 0
-197 -200 201 0
c gate 202 -79 -201 0
-79 -202 0
-201 -202 0
79 201 202 0
c gate 203 36 73 0
36 -203 0
73 -203 0
-36 -73 203 0
c gate 204 -74 -203 0
-74 -204 0
-203 -204 0
74 203 204 0
c gate 205 36 60 0
36 -205 0
60 -205 0
-36 -60 205 0
c gate 206 -61 -205 0
-61 -206 0
-205 -206 0
61 205 206 0
c gate 207 204 -206 0
204 -207 0
-206 -207 0
-204 206 207 0
c gate 208 40 -58 0
40 -208 0
-58 -208 0
-40 58 208 0
c gate 209 -59 -208 0
-59 -209 0
-208 -209 0
59 208 209 0
c gate 210 40 72 0
40 -210 0
72 -210 0
-40 -72 210 0
c gate 211 -40 -72 0
-40 -211 0
-72 -211 0
40 72 211 0
c gate 212 -210 -211 0
-210 -212 0
-211 -212 0
210 211 212 0
c gate 213 209 -212 0
209 -213 0
-212 -213 0
-209 212 213 0
c gate 214 -204 206 0
-204 -214 0
206 -214 0
204 -206 214 0
c gate 215 -207 -214 0
-207 -215 0
-214 -215 0
207 214 215 0
c gate 216 -213 215 0
-213 -216 0
215 -216 0
213 -215 216 0
c gate 217 -207 -216 0
-207 -217 0
-216 -217 0
207 216 217 0
c gate 218 -80 -217 0
-80 -218 0
-217 -218 0
80 217 218 0
c gate 219 18 -47 0
18 -219 0
-47 -219 0
-18 47 219 0
c gate 220 -54 -219 0
-54 -220 0
-219 -220 0
54 219 220 0
c gate 221 -209 212 0
-209 -221 0
212 -221 0
209 -212 221 0
c gate 222 -43 -56 0
-43 -222 0
-56 -222 0
43 56 222 0
c gate 223 -57 -222 0
-57 -223 0
-222 -223 0
57 222 223 0
c gate 224 -43 70 0
-43 -224 0
70 -224 0
43 -70 224 0
c gate 225 -71 -224 0
-71 -225 0
-224 -225 0
71 224 225 0
c gate 226 223 225 0
223 -226 0
225 -226 0
-223 -225 226 0
c gate 227 -2 55 0
-2 -227 0
55 -227 0
2 -55 227 0
c gate 228 -226 -227 0
-226 -228 0
-227 -228 0
226 227 228 0
c gate 229 -213 -228 0
-213 -229 0
-228 -229 0
213 228 229 0
c gate 230 -221 -229 0
-221 -230 0
-229 -230 0
221 229 230 0
c gate 231 216 230 0
216 -231 0
230 -231 0
-216 -230 231 0
c gate 232 220 231 0
220 -232 0
231 -232 0
-220 -231 232 0
c gate 233 218 -232 0
218 -233 0
-232 -233 0
-218 232 233 0
c gate 234 202 -233 0
202 -234 0
-233 -234 0
-202 233 234 0
c gate 235 -197 -200 0
-197 -235 0
-200 -235 0
197 200 235 0
c gate 236 -86 -235 0
-86 -236 0
-235 -236 0
86 235 236 0
c gate 237 -234 236 0
-234 -237 0
236 -237 0
234 -236 237 0
c gate 238 -195 -237 0
-195 -238 0
-237 -238 0
195 237 238 0
c gate 239 164 190 0
164 -239 0
190 -239 0
-164 -190 239 0
c gate 240 -238 -239 0
-238 -240 0
-239 -240 0
238 239 240 0
c gate 241 166 188 0
166 -241 0
188 -241 0
-166 -188 241 0
c gate 242 4 -20 0
4 -242 0
-20 -242 0
-4 20 242 0
c gate 243 -1 17 0
-1 -243 0
17 -243 0
1 -17 243 0
c gate 244 -48 -243 0
-48 -244 0
-243 -244 0
48 243 244 0
c gate 245 -46 -49 0
-46 -245 0
-49 -245 0
46 49 245 0
c gate 246 -244 245 0
-244 -246 0
245 -246 0
244 -245 246 0
c gate 247 -45 -246 0
-45 -247 0
-246 -247 0
45 246 247 0
c gate 248 242 -247 0
242 -248 0
-247 -248 0
-242 247 248 0
c gate 249 -241 -248 0
-241 -249 0
-248 -249 0
241 248 249 0
c gate 250 -240 249 0
-240 -250 0
249 -250 0
240 -249 250 0
c gate 251 7 -23 0
7 -251 0
-23 -251 0
-7 23 251 0
c gate 252 -7 23 0
-7 -252 0
23 -252 0
7 -23 252 0
c gate 253 36 40 0
36 -253 0
40 -253 0
-36 -40 253 0
c gate 254 242 253 0
242 -254 0
253 -254 0
-242 -253 254 0
c gate 255 -4 20 0
-4 -255 0
20 -255 0
4 -20 255 0
c gate 256 -38 -255 0
-38 -256 0
-255 -256 0
38 255 256 0
c gate 257 247 256 0
247 -257 0
256 -257 0
-247 -256 257 0
c gate 258 -35 -39 0
-35 -258 0
-39 -258 0
35 39 258 0
c gate 259 -257 258 0
-257 -259 0
258 -259 0
257 -258 259 0
c gate 260 -34 -259 0
-34 -260 0
-259 -260 0
34 259 260 0
c gate 261 -254 -260 0
-254 -261 0
-260 -261 0
254 260 261 0
c gate 262 -252 -261 0
-252 -262 0
-261 -262 0
252 261 262 0
c gate 263 -251 -262 0
-251 -263 0
-262 -263 0
251 262 263 0
c gate 264 -83 -263 0
-83 -264 0
-263 -264 0
83 263 264 0
c gate 265 -82 -264 0
-82 -265 0
-264 -265 0
82 264 265 0
c gate 266 -133 -265 0
-133 -266 0
-265 -266 0
133 265 266 0
c gate 267 -132 -266 0
-132 -267 0
-266 -267 0
132 266 267 0
c gate 268 -130 -267 0
-130 -268 0
-267 -268 0
130 267 268 0
c gate 269 -129 -268 0
-129 -269 0
-268 -269 0
129 268 269 0
c gate 270 -117 -269 0
-117 -270 0
-269 -270 0
117 269 270 0
c gate 271 -116 -270 0
-116 -271 0
-270 -271 0
116 270 271 0
c gate 272 -106 -271 0
-106 -272 0
-271 -272 0
106 271 272 0
c gate 273 -105 -272 0
-105 -273 0
-272 -273 0
105 272 273 0
c gate 274 -171 -273 0
-171 -274 0
-273 -274 0
171 273 274 0
c gate 275 -170 -274 0
-170 -275 0
-274 -275 0
170 274 275 0
c gate 276 -175 -275 0
-175 -276 0
-275 -276 0
175 275 276 0
c gate 277 -174 -276 0
-174 -277 0
-276 -277 0
174 276 277 0
c gate 278 -251 -260 0
-251 -278 0
-260 -278 0
251 260 278 0
c gate 279 -252 -278 0
-252 -279 0
-278 -279 0
252 278 279 0
c gate 280 -82 -279 0
-82 -280 0
-279 -280 0
82 279 280 0
c gate 281 -83 -280 0
-83 -281 0
-280 -281 0
83 280 281 0
c gate 282 -132 -281 0
-132 -282 0
-281 -282 0
132 281 282 0
c gate 283 -133 -282 0
-133 -283 0
-282 -283 0
133 282 283 0
c gate 284 -129 -283 0
-129 -284 0
-283 -284 0
129 283 284 0
c gate 285 -130 -284 0
-130 -285 0
-284 -285 0
130 284 285 0
c gate 286 -116 -285 0
-116 -286 0
-285 -286 0
116 285 286 0
c gate 287 -117 -286 0
-117 -287 0
-286 -287 0
117 286 287 0
c gate 288 -105 -287 0
-105 -288 0
-287 -288 0
105 287 288 0
c gate 289 -106 -288 0
-106 -289 0
-288 -289 0
106 288 289 0
c gate 290 -170 -289 0
-170 -290 0
-289 -290 0
170 289 290 0
c gate 291 -171 -290 0
-171 -291 0
-290 -291 0
171 290 291 0
c gate 292 -174 -291 0
-174 -292 0
-291 -292 0
174 291 292 0
c gate 293 -175 -292 0
-175 -293 0
-292 -293 0
175 292 293 0
c gate 294 -149 -173 0
-149 -294 0
-173 -294 0
149 173 294 0
c gate 295 -293 -294 0
-293 -295 0
-294 -295 0
293 294 295 0
c gate 296 -277 -295 0
-277 -296 0
-295 -296 0
277 295 296 0
c gate 297 -173 293 0
-173 -297 0
293 -297 0
173 -293 297 0
c gate 298 277 -297 0
277 -298 0
-297 -298 0
-277 297 298 0
c gate 299 -296 -298 0
-296 -299 0
-298 -299 0
296 298 299 0
c gate 300 -176 290 0
-176 -300 0
290 -300 0
176 -290 300 0
c gate 301 -275 300 0
-275 -301 0
300 -301 0
275 -300 301 0
c gate 302 -172 -289 0
-172 -302 0
-289 -302 0
172 289 302 0
c gate 303 -273 302 0
-273 -303 0
302 -303 0
273 -302 303 0
c gate 304 107 287 0
107 -304 0
287 -304 0
-107 -287 304 0
c gate 305 271 304 0
271 -305 0
304 -305 0
-271 -304 305 0
c gate 306 -107 -287 0
-107 -306 0
-287 -306 0
107 287 306 0
c gate 307 -271 306 0
-271 -307 0
306 -307 0
271 -306 307 0
c gate 308 -118 -285 0
-118 -308 0
-285 -308 0
118 285 308 0
c gate 309 -269 308 0
-269 -309 0
308 -309 0
269 -308 309 0
c gate 310 -131 -283 0
-131 -310 0
-283 -310 0
131 283 310 0
c gate 311 -267 310 0
-267 -311 0
310 -311 0
267 -310 311 0
c gate 312 -134 -281 0
-134 -312 0
-281 -312 0
134 281 312 0
c gate 313 -265 312 0
-265 -313 0
312 -313 0
265 -312 313 0
c gate 314 -65 253 0
-65 -314 0
253 -314 0
65 -253 314 0
c gate 315 248 -314 0
248 -315 0
-314 -315 0
-248 314 315 0
c gate 316 -84 -279 0
-84 -316 0
-279 -316 0
84 279 316 0
c gate 317 -263 316 0
-263 -317 0
316 -317 0
263 -316 317 0
c gate 318 -315 -317 0
-315 -318 0
-317 -318 0
315 317 318 0
c gate 319 -313 318 0
-313 -319 0
318 -319 0
313 -318 319 0
c gate 320 -311 319 0
-311 -320 0
319 -320 0
311 -319 320 0
c gate 321 -309 320 0
-309 -321 0
320 -321 0
309 -320 321 0
c gate 322 -307 321 0
-307 -322 0
321 -322 0
307 -321 322 0
c gate 323 -305 322 0
-305 -323 0
322 -323 0
305 -322 323 0
c gate 324 -303 323 0
-303 -324 0
323 -324 0
303 -323 324 0
c gate 325 -301 324 0
-301 -325 0
324 -325 0
301 -324 325 0
c gate 326 -299 325 0
-299 -326 0
325 -326 0
299 -325 326 0
c gate 327 -250 326 0
-250 -327 0
326 -327 0
250 -326 327 0
c gate 328 -238 327 0
-238 -328 0
327 -328 0
238 -327 328 0
c gate 329 218 -231 0
218 -329 0
-231 -329 0
-218 231 329 0
c gate 330 202 -329 0
202 -330 0
-329 -330 0
-202 329 330 0
c gate 331 -235 -330 0
-235 -331 0
-330 -331 0
235 330 331 0
c gate 332 142 331 0
142 -332 0
331 -332 0
-142 -331 332 0
c gate 333 146 -332 0
146 -333 0
-332 -333 0
-146 332 333 0
c gate 334 -194 -333 0
-194 -334 0
-333 -334 0
194 333 334 0
c gate 335 -327 -334 0
-327 -335 0
-334 -335 0
327 334 335 0
c gate 336 -328 -335 0
-328 -336 0
-335 -336 0
328 335 336 0
c PO
336 0
